NAME: instance_2074
TYPE: TSP
DIMENSION: 20
EDGE_WEIGHT_TYPE: EUC_2D
NODE_COORD_SECTION
0 37.25 6.26
1 81.25 32.31
2 37.55 50.82
3 43.47 94.48
4 41.03 51.39
5 68.16 12.58
6 86.26 26.07
7 62.47 18.70
8 35.26 99.37
9 28.60 49.62
10 62.70 12.80
11 55.33 87.68
12 94.10 78.03
13 30.77 67.33
14 92.12 42.02
15 39.89 77.77
16 62.70 99.35
17 63.59 7.48
18 79.76 98.40
19 18.55 73.01
EOF
